20
1 0 30
2 0 38
2 1 115
3 0 117
3 1 69
3 2 103
4 0 86
4 1 1
4 2 109
4 3 71
5 0 118
5 1 97
5 2 61
5 3 103
5 4 37
6 0 3
6 1 120
6 2 74
6 3 6
6 4 89
6 5 89
7 0 84
7 1 75
7 2 106
7 3 88
7 4 48
7 5 1
7 6 100
8 0 77
8 1 68
8 2 37
8 3 9
8 4 23
8 5 67
8 6 69
8 7 105
9 0 3
9 1 84
9 2 43
9 3 20
9 4 107
9 5 119
9 6 70
9 7 28
9 8 53
10 0 48
10 1 92
10 2 93
10 3 45
10 4 95
10 5 85
10 6 68
10 7 63
10 8 57
10 9 3
11 0 79
11 1 9
11 2 103
11 3 38
11 4 109
11 5 14
11 6 77
11 7 97
11 8 44
11 9 20
11 10 84
12 0 82
12 1 66
12 2 49
12 3 45
12 4 59
12 5 117
12 6 87
12 7 118
12 8 45
12 9 26
12 10 96
12 11 87
13 0 113
13 1 50
13 2 105
13 3 31
13 4 9
13 5 19
13 6 109
13 7 74
13 8 2
13 9 106
13 10 31
13 11 45
13 12 52
14 0 62
14 1 17
14 2 5
14 3 47
14 4 96
14 5 50
14 6 20
14 7 52
14 8 66
14 9 63
14 10 90
14 11 15
14 12 108
14 13 73
15 0 91
15 1 99
15 2 19
15 3 14
15 4 112
15 5 63
15 6 105
15 7 55
15 8 22
15 9 2
15 10 31
15 11 63
15 12 33
15 13 88
15 14 10
16 0 5
16 1 70
16 2 1
16 3 64
16 4 20
16 5 6
16 6 76
16 7 108
16 8 101
16 9 89
16 10 106
16 11 110
16 12 73
16 13 72
16 14 60
16 15 12
17 0 15
17 1 27
17 2 29
17 3 62
17 4 62
17 5 102
17 6 111
17 7 97
17 8 23
17 9 97
17 10 26
17 11 36
17 12 107
17 13 23
17 14 59
17 15 72
17 16 5
18 0 61
18 1 60
18 2 12
18 3 91
18 4 49
18 5 91
18 6 12
18 7 107
18 8 116
18 9 102
18 10 67
18 11 18
18 12 120
18 13 119
18 14 89
18 15 15
18 16 47
18 17 81
19 0 30
19 1 82
19 2 57
19 3 19
19 4 7
19 5 19
19 6 98
19 7 12
19 8 92
19 9 30
19 10 15
19 11 84
19 12 7
19 13 74
19 14 119
19 15 5
19 16 7
19 17 50
19 18 88
